16 19

17 7 14 11 7 15 9 14 13 6
6 10 5 2 19 12 10 6 15 12
17 13 2 9 1 7 6 12 7 10
17 4 16 13 3 4 7 5
10 12 13 10 7 7 5 4 8 9
9 13 16 3 13 4 5 4 12 2
7 8 12 7 6 15 17 2 19 13
15 6 17 13 16 10 19 11 4 4
1 15 7 14 9 4 18 6
4 13 2 14 7 5 15 13 13 7
16 9 10 4 18 9 1 5
14 11 4 14 6 5 2 2 1 4 5 4
11 11 12 11 8 15 19 13 3 12 2 10
7 14 5 3 16 10 9 11
9 8 5 3 1 12 19 2
7 4 3 4 16 13 18 15 4 9 12 9
